param Rmax := 3;
param Cmax := 5;

param Kmax := 2;

param T :=
	0 0 1
	0 1 1
	0 2 1
	0 3 1
	0 4 1
	1 0 1
	1 1 0
	1 2 0
	1 3 0
	1 4 1
	2 0 1
	2 1 1
	2 2 1
	2 3 1
	2 4 1
;

param L := 1;
param H := 6;